\ LP format - for model browsing. Use MPS format to capture full model detail.
Maximize
  12 x_l + 5 x_s
Subject To
 R0: 10 x_l + 7 x_s <= 1000
 R1: - 5 x_l + x_s >= 0
 R2: x_l >= 10
Bounds
Generals
 x_l x_s
End
